letting n =  10
letting blocks =  [[1, 2], [1, 3], [1, 7], [1, 8], [2, 6], [2, 8], [2, 9], [3, 6], [4, 4], [5, 1], [6, 2], [6, 5], [6, 10], [7, 5], [8, 2], [8, 3], [8, 7], [8, 9], [9, 2], [9, 3], [10, 9], [10, 10]]
